packages/rhetor/rhetor-1.1.3-pp311-pypy311_pp73-manylinux_2_5_x86_64.manylinux1_x86_64.manylinux_2_17_x86_64.manylinux2014_x86_64.whl/pyopl/opl_models/jobshop/jobshop.dat
nbJobs = 5;
nbMachines = 3;
duration = [
  [3, 2, 4],   // Job 1: Machine 1 = 3, Machine 2 = 2, Machine 3 = 4
  [2, 1, 3],   // Job 2: Machine 1 = 2, Machine 2 = 1, Machine 3 = 3
  [4, 3, 2],   // Job 3: Machine 1 = 4, Machine 2 = 3, Machine 3 = 2
  [5, 2, 1],   // Job 4: Machine 1 = 5, Machine 2 = 2, Machine 3 = 1
  [2, 4, 3]    // Job 5: Machine 1 = 2, Machine 2 = 4, Machine 3 = 3
];